Li4 F4
1.0
   4.0834271476795472    0.0000000000000000    0.0000000000000003
  -0.0000000000000003    4.0834271476795472    0.0000000000000003
   0.0000000000000000    0.0000000000000000    4.0834271476795472
Li F
4 4
direct
   0.0000000000000000    0.0000000000000000    0.0000000000000000 Li+
   0.0000000000000000    0.5000000000000000    0.5000000000000000 Li+
   0.5000000000000000    0.0000000000000000    0.5000000000000000 Li+
   0.5000000000000000    0.5000000000000000    0.0000000000000000 Li+
   0.0000000000000000    0.5000000000000000    0.0000000000000000 F-
   0.0000000000000000    0.0000000000000000    0.5000000000000000 F-
   0.5000000000000000    0.5000000000000000    0.5000000000000000 F-
   0.5000000000000000    0.0000000000000000    0.0000000000000000 F-
